(declare-fun var0 () String)
(declare-fun var1 () String)
(declare-fun var2 () String)
(declare-fun var3 () String)
(declare-fun var4 () String)
(declare-fun var5 () String)
(assert (= (str.++ "Mi^" (str.++ var0 (str.++ var1 (str.++ var2 (str.++ var3 (str.++ var4 var5)))))) (str.++ (str.++ var0 (str.++ var1 (str.++ var2 (str.++ var3 (str.++ var4 var5))))) "fPy")))
(check-sat)